9  2  3  7  6  5  1  4  8  

4  7  1  8  3  9  5  2  6  

6  5  8  4  1  2  7  9  3  

7  8  5  9  2  4  6  3  1  

2  1  4  3  8  6  9  5  7  

3  9  6  1  5  7  2  8  4  

8  3  9  2  7  1  4  6  5  

1  6  2  5  4  3  8  7  9  

5  4  7  6  9  8  3  1  2  